
Gurobi 10.0.2 (win64, gurobi_cl) logging started Tue Nov 21 22:06:25 2023

Set parameter LogFile to value "gurobi.log"
Using license file c:\gurobi\gurobi.lic

Gurobi 10.0.2 (win64, gurobi_cl) logging started Tue Nov 21 22:11:23 2023

Set parameter LogFile to value "gurobi.log"
Using license file c:\gurobi\gurobi.lic

Gurobi 10.0.2 (win64, gurobi_cl) logging started Tue Nov 21 22:12:44 2023

Set parameter LogFile to value "gurobi.log"
Using license file c:\gurobi\gurobi.lic

Gurobi 10.0.2 (win64, gurobi_cl) logging started Tue Nov 21 22:12:59 2023

Set parameter LogFile to value "gurobi.log"
Using license file c:\gurobi\gurobi.lic

Gurobi 10.0.2 (win64, gurobi_cl) logging started Tue Nov 21 22:13:48 2023

Set parameter LogFile to value "gurobi.log"
Using license file c:\gurobi\gurobi.lic

Gurobi 10.0.2 (win64, gurobi_cl) logging started Tue Nov 21 22:14:26 2023

Set parameter LogFile to value "gurobi.log"
Using license file c:\gurobi\gurobi.lic

Gurobi 10.0.2 (win64, gurobi_cl) logging started Tue Nov 21 22:15:15 2023

Set parameter LogFile to value "gurobi.log"
Using license file c:\gurobi\gurobi.lic

Gurobi 10.0.2 (win64, gurobi_cl) logging started Tue Nov 21 22:15:16 2023

Set parameter LogFile to value "gurobi.log"
Using license file c:\gurobi\gurobi.lic

Gurobi 10.0.2 (win64, gurobi_cl) logging started Tue Nov 21 22:16:36 2023

Set parameter LogFile to value "gurobi.log"
Using license file c:\gurobi\gurobi.lic

Gurobi 10.0.2 (win64, gurobi_cl) logging started Tue Nov 21 22:16:36 2023

Set parameter LogFile to value "gurobi.log"
Using license file c:\gurobi\gurobi.lic

Gurobi 10.0.2 (win64, gurobi_cl) logging started Tue Nov 21 22:16:50 2023

Set parameter LogFile to value "gurobi.log"
Using license file c:\gurobi\gurobi.lic

Gurobi 10.0.2 (win64, gurobi_cl) logging started Tue Nov 21 22:16:51 2023

Set parameter LogFile to value "gurobi.log"
Using license file c:\gurobi\gurobi.lic

Gurobi 10.0.2 (win64, gurobi_cl) logging started Tue Nov 21 22:17:08 2023

Set parameter LogFile to value "gurobi.log"
Using license file c:\gurobi\gurobi.lic

Gurobi 10.0.2 (win64, gurobi_cl) logging started Tue Nov 21 22:17:08 2023

Set parameter LogFile to value "gurobi.log"
Using license file c:\gurobi\gurobi.lic

Gurobi 10.0.2 (win64, gurobi_cl) logging started Wed Nov 22 11:15:32 2023

Set parameter LogFile to value "gurobi.log"
Using license file c:\gurobi\gurobi.lic

Gurobi 10.0.2 (win64, gurobi_cl) logging started Wed Nov 22 11:15:34 2023

Set parameter LogFile to value "gurobi.log"
Using license file c:\gurobi\gurobi.lic

Gurobi 10.0.2 (win64, gurobi_cl) logging started Wed Nov 22 11:17:31 2023

Set parameter LogFile to value "gurobi.log"
Using license file c:\gurobi\gurobi.lic

Gurobi 10.0.2 (win64, gurobi_cl) logging started Wed Nov 22 11:17:32 2023

Set parameter LogFile to value "gurobi.log"
Using license file c:\gurobi\gurobi.lic

Gurobi 10.0.2 (win64, gurobi_cl) logging started Wed Nov 22 11:21:34 2023

Set parameter LogFile to value "gurobi.log"
Using license file c:\gurobi\gurobi.lic

Gurobi 10.0.2 (win64, gurobi_cl) logging started Wed Nov 22 11:21:34 2023

Set parameter LogFile to value "gurobi.log"
Using license file c:\gurobi\gurobi.lic

Gurobi 10.0.2 (win64, gurobi_cl) logging started Wed Nov 22 11:21:34 2023

Set parameter LogFile to value "gurobi.log"
Using license file c:\gurobi\gurobi.lic

Gurobi 10.0.2 (win64, gurobi_cl) logging started Wed Nov 22 11:21:55 2023

Set parameter LogFile to value "gurobi.log"
Using license file c:\gurobi\gurobi.lic

Gurobi 10.0.2 (win64, gurobi_cl) logging started Wed Nov 22 11:21:56 2023

Set parameter LogFile to value "gurobi.log"
Using license file c:\gurobi\gurobi.lic

Gurobi 10.0.2 (win64, gurobi_cl) logging started Wed Nov 22 11:21:56 2023

Set parameter LogFile to value "gurobi.log"
Using license file c:\gurobi\gurobi.lic

Gurobi 10.0.2 (win64, gurobi_cl) logging started Wed Nov 22 15:57:23 2023

Set parameter LogFile to value "gurobi.log"
Using license file c:\gurobi\gurobi.lic

Gurobi 10.0.2 (win64, gurobi_cl) logging started Wed Nov 22 15:57:23 2023

Set parameter LogFile to value "gurobi.log"
Using license file c:\gurobi\gurobi.lic

Gurobi 10.0.2 (win64, gurobi_cl) logging started Wed Nov 22 15:57:24 2023

Set parameter LogFile to value "gurobi.log"
Using license file c:\gurobi\gurobi.lic

Gurobi 10.0.2 (win64, gurobi_cl) logging started Wed Nov 22 15:57:24 2023

Set parameter LogFile to value "gurobi.log"
Using license file c:\gurobi\gurobi.lic

Gurobi 10.0.2 (win64, gurobi_cl) logging started Wed Nov 22 15:57:24 2023

Set parameter LogFile to value "gurobi.log"
Using license file c:\gurobi\gurobi.lic

Gurobi 10.0.2 (win64, gurobi_cl) logging started Wed Nov 22 16:04:57 2023

Set parameter LogFile to value "gurobi.log"
Using license file c:\gurobi\gurobi.lic

Gurobi 10.0.2 (win64, gurobi_cl) logging started Wed Nov 22 16:04:58 2023

Set parameter LogFile to value "gurobi.log"
Using license file c:\gurobi\gurobi.lic

Gurobi 10.0.2 (win64, gurobi_cl) logging started Wed Nov 22 16:04:58 2023

Set parameter LogFile to value "gurobi.log"
Using license file c:\gurobi\gurobi.lic

Gurobi 10.0.2 (win64, gurobi_cl) logging started Wed Nov 22 16:09:33 2023

Set parameter LogFile to value "gurobi.log"
Using license file c:\gurobi\gurobi.lic

Gurobi 10.0.2 (win64, gurobi_cl) logging started Wed Nov 22 16:09:33 2023

Set parameter LogFile to value "gurobi.log"
Using license file c:\gurobi\gurobi.lic

Gurobi 10.0.2 (win64, gurobi_cl) logging started Wed Nov 22 16:09:33 2023

Set parameter LogFile to value "gurobi.log"
Using license file c:\gurobi\gurobi.lic

Gurobi 10.0.2 (win64, gurobi_cl) logging started Wed Nov 22 16:09:49 2023

Set parameter LogFile to value "gurobi.log"
Using license file c:\gurobi\gurobi.lic

Gurobi 10.0.2 (win64, gurobi_cl) logging started Wed Nov 22 16:09:49 2023

Set parameter LogFile to value "gurobi.log"
Using license file c:\gurobi\gurobi.lic

Gurobi 10.0.2 (win64, gurobi_cl) logging started Wed Nov 22 16:09:49 2023

Set parameter LogFile to value "gurobi.log"
Using license file c:\gurobi\gurobi.lic

Gurobi 10.0.2 (win64, gurobi_cl) logging started Wed Nov 22 16:11:24 2023

Set parameter LogFile to value "gurobi.log"
Using license file c:\gurobi\gurobi.lic

Gurobi 10.0.2 (win64, gurobi_cl) logging started Wed Nov 22 16:11:24 2023

Set parameter LogFile to value "gurobi.log"
Using license file c:\gurobi\gurobi.lic

Gurobi 10.0.2 (win64, gurobi_cl) logging started Wed Nov 22 16:11:24 2023

Set parameter LogFile to value "gurobi.log"
Using license file c:\gurobi\gurobi.lic

Gurobi 10.0.2 (win64, gurobi_cl) logging started Wed Nov 22 16:14:22 2023

Set parameter LogFile to value "gurobi.log"
Using license file c:\gurobi\gurobi.lic

Gurobi 10.0.2 (win64, gurobi_cl) logging started Wed Nov 22 16:14:22 2023

Set parameter LogFile to value "gurobi.log"
Using license file c:\gurobi\gurobi.lic

Gurobi 10.0.2 (win64, gurobi_cl) logging started Wed Nov 22 16:14:22 2023

Set parameter LogFile to value "gurobi.log"
Using license file c:\gurobi\gurobi.lic

Gurobi 10.0.2 (win64, gurobi_cl) logging started Wed Nov 22 16:14:35 2023

Set parameter LogFile to value "gurobi.log"
Using license file c:\gurobi\gurobi.lic

Gurobi 10.0.2 (win64, gurobi_cl) logging started Wed Nov 22 16:14:35 2023

Set parameter LogFile to value "gurobi.log"
Using license file c:\gurobi\gurobi.lic

Gurobi 10.0.2 (win64, gurobi_cl) logging started Wed Nov 22 16:14:35 2023

Set parameter LogFile to value "gurobi.log"
Using license file c:\gurobi\gurobi.lic

Gurobi 10.0.2 (win64, gurobi_cl) logging started Wed Nov 22 16:16:58 2023

Set parameter LogFile to value "gurobi.log"
Using license file c:\gurobi\gurobi.lic

Gurobi 10.0.2 (win64, gurobi_cl) logging started Wed Nov 22 16:16:58 2023

Set parameter LogFile to value "gurobi.log"
Using license file c:\gurobi\gurobi.lic

Gurobi 10.0.2 (win64, gurobi_cl) logging started Wed Nov 22 16:16:58 2023

Set parameter LogFile to value "gurobi.log"
Using license file c:\gurobi\gurobi.lic

Gurobi 10.0.2 (win64, gurobi_cl) logging started Wed Nov 22 16:17:53 2023

Set parameter LogFile to value "gurobi.log"
Using license file c:\gurobi\gurobi.lic

Gurobi 10.0.2 (win64, gurobi_cl) logging started Wed Nov 22 16:17:54 2023

Set parameter LogFile to value "gurobi.log"
Using license file c:\gurobi\gurobi.lic

Gurobi 10.0.2 (win64, gurobi_cl) logging started Wed Nov 22 16:17:54 2023

Set parameter LogFile to value "gurobi.log"
Using license file c:\gurobi\gurobi.lic

Gurobi 10.0.2 (win64, gurobi_cl) logging started Wed Nov 22 16:18:10 2023

Set parameter LogFile to value "gurobi.log"
Using license file c:\gurobi\gurobi.lic

Gurobi 10.0.2 (win64, gurobi_cl) logging started Wed Nov 22 16:18:11 2023

Set parameter LogFile to value "gurobi.log"
Using license file c:\gurobi\gurobi.lic

Gurobi 10.0.2 (win64, gurobi_cl) logging started Wed Nov 22 16:18:11 2023

Set parameter LogFile to value "gurobi.log"
Using license file c:\gurobi\gurobi.lic

Gurobi 10.0.2 (win64, gurobi_cl) logging started Wed Nov 22 16:20:52 2023

Set parameter LogFile to value "gurobi.log"
Using license file c:\gurobi\gurobi.lic

Gurobi 10.0.2 (win64, gurobi_cl) logging started Wed Nov 22 16:20:52 2023

Set parameter LogFile to value "gurobi.log"
Using license file c:\gurobi\gurobi.lic

Gurobi 10.0.2 (win64, gurobi_cl) logging started Wed Nov 22 16:20:53 2023

Set parameter LogFile to value "gurobi.log"
Using license file c:\gurobi\gurobi.lic

Gurobi 10.0.2 (win64, gurobi_cl) logging started Wed Nov 22 16:22:36 2023

Set parameter LogFile to value "gurobi.log"
Using license file c:\gurobi\gurobi.lic

Gurobi 10.0.2 (win64, gurobi_cl) logging started Wed Nov 22 16:22:37 2023

Set parameter LogFile to value "gurobi.log"
Using license file c:\gurobi\gurobi.lic

Gurobi 10.0.2 (win64, gurobi_cl) logging started Wed Nov 22 16:22:37 2023

Set parameter LogFile to value "gurobi.log"
Using license file c:\gurobi\gurobi.lic

Gurobi 10.0.2 (win64, gurobi_cl) logging started Thu Nov 30 15:49:22 2023

Set parameter LogFile to value "gurobi.log"
Using license file c:\gurobi\gurobi.lic

Gurobi 10.0.2 (win64, gurobi_cl) logging started Thu Nov 30 15:49:23 2023

Set parameter LogFile to value "gurobi.log"
Using license file c:\gurobi\gurobi.lic

Gurobi 10.0.2 (win64, gurobi_cl) logging started Thu Nov 30 15:49:23 2023

Set parameter LogFile to value "gurobi.log"
Using license file c:\gurobi\gurobi.lic

Gurobi 10.0.2 (win64, gurobi_cl) logging started Thu Nov 30 15:51:38 2023

Set parameter LogFile to value "gurobi.log"
Using license file c:\gurobi\gurobi.lic

Gurobi 10.0.2 (win64, gurobi_cl) logging started Thu Nov 30 16:10:48 2023

Set parameter LogFile to value "gurobi.log"
Using license file c:\gurobi\gurobi.lic
